
  32    1
  10

   0   0   4 2 3 4 7 
   3   1   3 14 11 8 
  10   2   1 5 
   2   2   1 6 
   1   2   3 13 11 9 
   6   1   3 13 11 9 
  10   1   3 14 11 9 
  10   3   3 17 13 9 
   3   2   1 10 
   2   1   2 20 12 
   1   5   4 22 20 18 17 
   1   2   3 22 16 15 
   1   2   3 22 20 15 
  10   2   2 22 15 
   4   2   3 30 21 19 
   1   3   3 30 21 19 
   1   1   3 30 24 21 
   7   1   2 30 19 
   3   4   4 31 29 24 23 
  10   2   4 30 29 24 23 
  10   2   3 31 29 23 
   8   2   2 30 23 
   7   1   2 28 25 
   7   2   2 28 25 
   4   1   2 27 26 
   8   3   1 32
   2   3   1 32
   5   2   1 32
   6   1   1 32
   2   3   1 32
   3   1   1 32
   0   0   0 
